(set-info :smt-lib-version 2.6)
(set-info :category "crafted")
(set-logic QF_FF)
(define-sort FF0 () (_ FiniteField 52435875175126190479447740508185965837690552500527637822603658699938581184513))
(declare-fun out_alt () FF0)
(declare-fun _90_alt () FF0)
(declare-fun _89_alt () FF0)
(declare-fun _45_alt () FF0)
(declare-fun _88_alt () FF0)
(declare-fun _49_alt () FF0)
(declare-fun _87_alt () FF0)
(declare-fun _75_alt () FF0)
(declare-fun _85_alt () FF0)
(declare-fun _84_alt () FF0)
(declare-fun _79_alt () FF0)
(declare-fun _32_alt () FF0)
(declare-fun _54_alt () FF0)
(declare-fun _7_alt () FF0)
(declare-fun _55_alt () FF0)
(declare-fun _78_alt () FF0)
(declare-fun _39_alt () FF0)
(declare-fun _77_alt () FF0)
(declare-fun _76_alt () FF0)
(declare-fun _44_alt () FF0)
(declare-fun _10_alt () FF0)
(declare-fun _34_alt () FF0)
(declare-fun _74_alt () FF0)
(declare-fun _57_alt () FF0)
(declare-fun _73_alt () FF0)
(declare-fun _59_alt () FF0)
(declare-fun _72_alt () FF0)
(declare-fun _23_alt () FF0)
(declare-fun _71_alt () FF0)
(declare-fun _61_alt () FF0)
(declare-fun _70_alt () FF0)
(declare-fun _67_alt () FF0)
(declare-fun _66_alt () FF0)
(declare-fun _69_alt () FF0)
(declare-fun _26_alt () FF0)
(declare-fun _42_alt () FF0)
(declare-fun _6_alt () FF0)
(declare-fun _1_alt () FF0)
(declare-fun _8_alt () FF0)
(declare-fun _27_alt () FF0)
(declare-fun _53_alt () FF0)
(declare-fun _2_alt () FF0)
(declare-fun _52_alt () FF0)
(declare-fun _51_alt () FF0)
(declare-fun _36_alt () FF0)
(declare-fun _21_alt () FF0)
(declare-fun _20_alt () FF0)
(declare-fun _48_alt () FF0)
(declare-fun _47_alt () FF0)
(declare-fun _5_alt () FF0)
(declare-fun _0_alt () FF0)
(declare-fun _16_alt () FF0)
(declare-fun _40_alt () FF0)
(declare-fun _38_alt () FF0)
(declare-fun _31_alt () FF0)
(declare-fun _3_alt () FF0)
(declare-fun _30_alt () FF0)
(declare-fun _4_alt () FF0)
(declare-fun _9_alt () FF0)
(declare-fun _11_alt () FF0)
(declare-fun _15_alt () FF0)
(declare-fun _14_alt () FF0)
(declare-fun _13_alt () FF0)
(declare-fun _12_alt () FF0)
(declare-fun out () FF0)
(declare-fun _90 () FF0)
(declare-fun _89 () FF0)
(declare-fun _45 () FF0)
(declare-fun _88 () FF0)
(declare-fun _49 () FF0)
(declare-fun _87 () FF0)
(declare-fun _75 () FF0)
(declare-fun _85 () FF0)
(declare-fun _84 () FF0)
(declare-fun _79 () FF0)
(declare-fun _32 () FF0)
(declare-fun _54 () FF0)
(declare-fun _7 () FF0)
(declare-fun _55 () FF0)
(declare-fun _78 () FF0)
(declare-fun _39 () FF0)
(declare-fun _77 () FF0)
(declare-fun _76 () FF0)
(declare-fun _44 () FF0)
(declare-fun _10 () FF0)
(declare-fun _34 () FF0)
(declare-fun _74 () FF0)
(declare-fun _57 () FF0)
(declare-fun _73 () FF0)
(declare-fun _59 () FF0)
(declare-fun _72 () FF0)
(declare-fun _23 () FF0)
(declare-fun _71 () FF0)
(declare-fun _61 () FF0)
(declare-fun _70 () FF0)
(declare-fun _67 () FF0)
(declare-fun _66 () FF0)
(declare-fun _69 () FF0)
(declare-fun _26 () FF0)
(declare-fun _42 () FF0)
(declare-fun _6 () FF0)
(declare-fun _1 () FF0)
(declare-fun _8 () FF0)
(declare-fun _27 () FF0)
(declare-fun _53 () FF0)
(declare-fun _2 () FF0)
(declare-fun _52 () FF0)
(declare-fun _51 () FF0)
(declare-fun _36 () FF0)
(declare-fun _21 () FF0)
(declare-fun _20 () FF0)
(declare-fun _48 () FF0)
(declare-fun _47 () FF0)
(declare-fun _5 () FF0)
(declare-fun _0 () FF0)
(declare-fun _16 () FF0)
(declare-fun _40 () FF0)
(declare-fun _38 () FF0)
(declare-fun _31 () FF0)
(declare-fun _3 () FF0)
(declare-fun _30 () FF0)
(declare-fun _4 () FF0)
(declare-fun _9 () FF0)
(declare-fun _11 () FF0)
(declare-fun _15 () FF0)
(declare-fun _14 () FF0)
(declare-fun _13 () FF0)
(declare-fun _12 () FF0)
(assert 
  (let ((let0 out_alt))
  (let ((let1 _90_alt))
  (let ((let2 (= let1 let0)))
  (let ((let3 (as ff52435875175126190479447740508185965837690552500527637822603658699938581184512 FF0)))
  (let ((let4 (ff.mul let1 let3)))
  (let ((let5 _89_alt))
  (let ((let6 _45_alt))
  (let ((let7 (ff.add let6 let5 let4)))
  (let ((let8 (ff.mul let5 let6)))
  (let ((let9 (= let8 let7)))
  (let ((let10 (ff.mul let5 let3)))
  (let ((let11 _88_alt))
  (let ((let12 _49_alt))
  (let ((let13 (ff.add let12 let11 let10)))
  (let ((let14 (ff.mul let11 let12)))
  (let ((let15 (= let14 let13)))
  (let ((let16 (ff.mul let11 let3)))
  (let ((let17 _87_alt))
  (let ((let18 _75_alt))
  (let ((let19 (ff.add let18 let17 let16)))
  (let ((let20 (ff.mul let17 let18)))
  (let ((let21 (= let20 let19)))
  (let ((let22 (ff.mul let17 let3)))
  (let ((let23 _85_alt))
  (let ((let24 _84_alt))
  (let ((let25 _79_alt))
  (let ((let26 (ff.add let25 let24 let23 let22)))
  (let ((let27 (ff.add let24 let23)))
  (let ((let28 (ff.mul let27 let25)))
  (let ((let29 (= let28 let26)))
  (let ((let30 _32_alt))
  (let ((let31 _54_alt))
  (let ((let32 (ff.mul let31 let30)))
  (let ((let33 (= let32 let23)))
  (let ((let34 (as ff1 FF0)))
  (let ((let35 _7_alt))
  (let ((let36 (ff.mul let35 let3)))
  (let ((let37 (ff.add let36 let34)))
  (let ((let38 (ff.mul let31 let3)))
  (let ((let39 (ff.add let38 let34)))
  (let ((let40 (ff.mul let39 let37)))
  (let ((let41 (= let40 let24)))
  (let ((let42 _55_alt))
  (let ((let43 _78_alt))
  (let ((let44 (ff.mul let43 let42)))
  (let ((let45 (= let44 let25)))
  (let ((let46 _39_alt))
  (let ((let47 _77_alt))
  (let ((let48 (ff.mul let47 let46)))
  (let ((let49 (= let48 let43)))
  (let ((let50 _76_alt))
  (let ((let51 (ff.mul let50 let35)))
  (let ((let52 (= let51 let47)))
  (let ((let53 _44_alt))
  (let ((let54 _10_alt))
  (let ((let55 (ff.mul let54 let53)))
  (let ((let56 (= let55 let50)))
  (let ((let57 _34_alt))
  (let ((let58 (ff.mul let57 let3)))
  (let ((let59 (ff.add let58 let34)))
  (let ((let60 _74_alt))
  (let ((let61 (ff.mul let60 let59)))
  (let ((let62 (= let61 let18)))
  (let ((let63 _57_alt))
  (let ((let64 (ff.mul let63 let3)))
  (let ((let65 (ff.add let64 let34)))
  (let ((let66 _73_alt))
  (let ((let67 (ff.mul let66 let65)))
  (let ((let68 (= let67 let60)))
  (let ((let69 _59_alt))
  (let ((let70 (ff.mul let69 let3)))
  (let ((let71 (ff.add let70 let34)))
  (let ((let72 _72_alt))
  (let ((let73 (ff.mul let72 let71)))
  (let ((let74 (= let73 let66)))
  (let ((let75 _23_alt))
  (let ((let76 _71_alt))
  (let ((let77 (ff.mul let76 let75)))
  (let ((let78 (= let77 let72)))
  (let ((let79 _61_alt))
  (let ((let80 (ff.mul let79 let3)))
  (let ((let81 (ff.add let80 let34)))
  (let ((let82 _70_alt))
  (let ((let83 (ff.mul let82 let81)))
  (let ((let84 (= let83 let76)))
  (let ((let85 _67_alt))
  (let ((let86 _66_alt))
  (let ((let87 (ff.add let86 let85)))
  (let ((let88 _69_alt))
  (let ((let89 (ff.mul let88 let87)))
  (let ((let90 (= let89 let82)))
  (let ((let91 _26_alt))
  (let ((let92 (ff.mul let91 let3)))
  (let ((let93 (ff.add let92 let34)))
  (let ((let94 (ff.mul let93 let30)))
  (let ((let95 (= let94 let88)))
  (let ((let96 _42_alt))
  (let ((let97 (ff.mul let96 let3)))
  (let ((let98 (ff.add let97 let34)))
  (let ((let99 _6_alt))
  (let ((let100 (ff.mul let99 let3)))
  (let ((let101 (ff.add let100 let34)))
  (let ((let102 (ff.mul let101 let98)))
  (let ((let103 (= let102 let85)))
  (let ((let104 (ff.mul let99 let59)))
  (let ((let105 (= let104 let86)))
  (let ((let106 _1_alt))
  (let ((let107 (ff.add let106 let36)))
  (let ((let108 (ff.mul let107 let107)))
  (let ((let109 (= let108 let79)))
  (let ((let110 (ff.mul let75 let3)))
  (let ((let111 (ff.add let110 let63)))
  (let ((let112 (ff.mul let111 let111)))
  (let ((let113 (= let112 let69)))
  (let ((let114 (ff.mul let42 let3)))
  (let ((let115 _8_alt))
  (let ((let116 (ff.mul let115 let3)))
  (let ((let117 (ff.add let116 let114 let34)))
  (let ((let118 (ff.mul let117 let117)))
  (let ((let119 (= let118 let63)))
  (let ((let120 _27_alt))
  (let ((let121 (ff.mul let120 let3)))
  (let ((let122 (ff.add let121 let31 let114 let34)))
  (let ((let123 (ff.add let121 let34)))
  (let ((let124 (ff.mul let123 let31)))
  (let ((let125 (= let124 let122)))
  (let ((let126 _53_alt))
  (let ((let127 _2_alt))
  (let ((let128 (ff.add let127 let126 let38)))
  (let ((let129 (ff.mul let126 let127)))
  (let ((let130 (= let129 let128)))
  (let ((let131 (ff.mul let126 let3)))
  (let ((let132 _52_alt))
  (let ((let133 (ff.add let36 let132 let131 let34)))
  (let ((let134 (ff.mul let132 let37)))
  (let ((let135 (= let134 let133)))
  (let ((let136 (ff.mul let132 let3)))
  (let ((let137 _51_alt))
  (let ((let138 _36_alt))
  (let ((let139 (ff.mul let138 let3)))
  (let ((let140 (ff.add let139 let137 let136 let34)))
  (let ((let141 (ff.add let139 let34)))
  (let ((let142 (ff.mul let137 let141)))
  (let ((let143 (= let142 let140)))
  (let ((let144 (ff.mul let137 let3)))
  (let ((let145 _21_alt))
  (let ((let146 _20_alt))
  (let ((let147 (ff.mul let106 let3)))
  (let ((let148 (ff.add let147 let146 let145 let144 let34)))
  (let ((let149 (ff.add let147 let34)))
  (let ((let150 (ff.add let146 let145)))
  (let ((let151 (ff.mul let150 let149)))
  (let ((let152 (= let151 let148)))
  (let ((let153 (ff.mul let12 let3)))
  (let ((let154 _48_alt))
  (let ((let155 (ff.add let54 let154 let153)))
  (let ((let156 (ff.mul let154 let54)))
  (let ((let157 (= let156 let155)))
  (let ((let158 (ff.mul let154 let3)))
  (let ((let159 _47_alt))
  (let ((let160 _5_alt))
  (let ((let161 (ff.add let160 let159 let158)))
  (let ((let162 (ff.mul let159 let160)))
  (let ((let163 (= let162 let161)))
  (let ((let164 (ff.mul let159 let3)))
  (let ((let165 _0_alt))
  (let ((let166 (ff.add let165 let92 let164 let34)))
  (let ((let167 (ff.mul let165 let93)))
  (let ((let168 (= let167 let166)))
  (let ((let169 (ff.mul let6 let3)))
  (let ((let170 (ff.mul let53 let3)))
  (let ((let171 (ff.add let91 let170 let169 let34)))
  (let ((let172 (ff.add let170 let34)))
  (let ((let173 (ff.mul let172 let91)))
  (let ((let174 (= let173 let171)))
  (let ((let175 _16_alt))
  (let ((let176 (ff.mul let175 let98)))
  (let ((let177 (= let176 let53)))
  (let ((let178 _40_alt))
  (let ((let179 (ff.mul let178 let3)))
  (let ((let180 (ff.add let120 let179)))
  (let ((let181 (ff.mul let180 let180)))
  (let ((let182 (= let181 let96)))
  (let ((let183 (ff.mul let165 let3)))
  (let ((let184 (ff.add let183 let46)))
  (let ((let185 (ff.mul let184 let184)))
  (let ((let186 (= let185 let178)))
  (let ((let187 (ff.mul let46 let3)))
  (let ((let188 _38_alt))
  (let ((let189 (ff.add let30 let188 let187)))
  (let ((let190 (ff.mul let188 let30)))
  (let ((let191 (= let190 let189)))
  (let ((let192 (as ff2 FF0)))
  (let ((let193 (ff.mul let188 let3)))
  (let ((let194 (ff.add let36 let139 let193 let192)))
  (let ((let195 (ff.mul let141 let37)))
  (let ((let196 (= let195 let194)))
  (let ((let197 (ff.add let106 let57 let3)))
  (let ((let198 (ff.mul let197 let197)))
  (let ((let199 (= let198 let138)))
  (let ((let200 (ff.mul let160 let3)))
  (let ((let201 (ff.add let165 let200)))
  (let ((let202 (ff.mul let201 let201)))
  (let ((let203 (= let202 let57)))
  (let ((let204 (ff.mul let30 let3)))
  (let ((let205 _31_alt))
  (let ((let206 _3_alt))
  (let ((let207 (ff.add let206 let205 let204)))
  (let ((let208 (ff.mul let205 let206)))
  (let ((let209 (= let208 let207)))
  (let ((let210 (ff.mul let205 let3)))
  (let ((let211 _30_alt))
  (let ((let212 (ff.add let120 let211 let210)))
  (let ((let213 (ff.mul let211 let120)))
  (let ((let214 (= let213 let212)))
  (let ((let215 (ff.mul let211 let3)))
  (let ((let216 (ff.add let99 let54 let215)))
  (let ((let217 (ff.mul let54 let99)))
  (let ((let218 (= let217 let216)))
  (let ((let219 _4_alt))
  (let ((let220 (ff.mul let206 let3)))
  (let ((let221 (ff.add let220 let219)))
  (let ((let222 (ff.mul let221 let221)))
  (let ((let223 (= let222 let120)))
  (let ((let224 (ff.add let106 let110 let92 let34)))
  (let ((let225 (ff.add let110 let34)))
  (let ((let226 (ff.mul let225 let106)))
  (let ((let227 (= let226 let224)))
  (let ((let228 (ff.add let116 let146 let145)))
  (let ((let229 (ff.mul let228 let228)))
  (let ((let230 (= let229 let75)))
  (let ((let231 _9_alt))
  (let ((let232 (ff.mul let175 let3)))
  (let ((let233 (ff.add let232 let34)))
  (let ((let234 (ff.mul let233 let231)))
  (let ((let235 (= let234 let145)))
  (let ((let236 _11_alt))
  (let ((let237 (ff.mul let175 let236)))
  (let ((let238 (= let237 let146)))
  (let ((let239 _15_alt))
  (let ((let240 (ff.add let99 let239 let232)))
  (let ((let241 (ff.mul let239 let99)))
  (let ((let242 (= let241 let240)))
  (let ((let243 (ff.mul let239 let3)))
  (let ((let244 _14_alt))
  (let ((let245 (ff.add let127 let244 let243)))
  (let ((let246 (ff.mul let244 let127)))
  (let ((let247 (= let246 let245)))
  (let ((let248 (ff.mul let244 let3)))
  (let ((let249 _13_alt))
  (let ((let250 (ff.add let236 let249 let248)))
  (let ((let251 (ff.mul let249 let236)))
  (let ((let252 (= let251 let250)))
  (let ((let253 (ff.mul let249 let3)))
  (let ((let254 _12_alt))
  (let ((let255 (ff.add let219 let254 let253)))
  (let ((let256 (ff.mul let254 let219)))
  (let ((let257 (= let256 let255)))
  (let ((let258 (ff.mul let254 let3)))
  (let ((let259 (ff.add let115 let231 let258)))
  (let ((let260 (ff.mul let231 let115)))
  (let ((let261 (= let260 let259)))
  (let ((let262 (ff.mul let236 let236)))
  (let ((let263 (= let262 let236)))
  (let ((let264 (ff.mul let54 let54)))
  (let ((let265 (= let264 let54)))
  (let ((let266 (ff.mul let231 let231)))
  (let ((let267 (= let266 let231)))
  (let ((let268 (ff.mul let115 let115)))
  (let ((let269 (= let268 let115)))
  (let ((let270 (ff.mul let35 let35)))
  (let ((let271 (= let270 let35)))
  (let ((let272 (ff.mul let99 let99)))
  (let ((let273 (= let272 let99)))
  (let ((let274 (ff.mul let160 let160)))
  (let ((let275 (= let274 let160)))
  (let ((let276 (ff.mul let219 let219)))
  (let ((let277 (= let276 let219)))
  (let ((let278 (ff.mul let206 let206)))
  (let ((let279 (= let278 let206)))
  (let ((let280 (ff.mul let127 let127)))
  (let ((let281 (= let280 let127)))
  (let ((let282 (ff.mul let106 let106)))
  (let ((let283 (= let282 let106)))
  (let ((let284 (ff.mul let165 let165)))
  (let ((let285 (= let284 let165)))
  (let ((let286 (and let285 let283 let281 let279 let277 let275 let273 let271 let269 let267 let265 let263 let261 let257 let252 let247 let242 let238 let235 let230 let227 let223 let218 let214 let209 let203 let199 let196 let191 let186 let182 let177 let174 let168 let163 let157 let152 let143 let135 let130 let125 let119 let113 let109 let105 let103 let95 let90 let84 let78 let74 let68 let62 let56 let52 let49 let45 let41 let33 let29 let21 let15 let9 let2)))
  (let ((let287 out))
  (let ((let288 _90))
  (let ((let289 (= let288 let287)))
  (let ((let290 (ff.mul let288 let3)))
  (let ((let291 _89))
  (let ((let292 _45))
  (let ((let293 (ff.add let292 let291 let290)))
  (let ((let294 (ff.mul let291 let292)))
  (let ((let295 (= let294 let293)))
  (let ((let296 (ff.mul let291 let3)))
  (let ((let297 _88))
  (let ((let298 _49))
  (let ((let299 (ff.add let298 let297 let296)))
  (let ((let300 (ff.mul let297 let298)))
  (let ((let301 (= let300 let299)))
  (let ((let302 (ff.mul let297 let3)))
  (let ((let303 _87))
  (let ((let304 _75))
  (let ((let305 (ff.add let304 let303 let302)))
  (let ((let306 (ff.mul let303 let304)))
  (let ((let307 (= let306 let305)))
  (let ((let308 (ff.mul let303 let3)))
  (let ((let309 _85))
  (let ((let310 _84))
  (let ((let311 _79))
  (let ((let312 (ff.add let311 let310 let309 let308)))
  (let ((let313 (ff.add let310 let309)))
  (let ((let314 (ff.mul let313 let311)))
  (let ((let315 (= let314 let312)))
  (let ((let316 _32))
  (let ((let317 _54))
  (let ((let318 (ff.mul let317 let316)))
  (let ((let319 (= let318 let309)))
  (let ((let320 _7))
  (let ((let321 (ff.mul let320 let3)))
  (let ((let322 (ff.add let321 let34)))
  (let ((let323 (ff.mul let317 let3)))
  (let ((let324 (ff.add let323 let34)))
  (let ((let325 (ff.mul let324 let322)))
  (let ((let326 (= let325 let310)))
  (let ((let327 _55))
  (let ((let328 _78))
  (let ((let329 (ff.mul let328 let327)))
  (let ((let330 (= let329 let311)))
  (let ((let331 _39))
  (let ((let332 _77))
  (let ((let333 (ff.mul let332 let331)))
  (let ((let334 (= let333 let328)))
  (let ((let335 _76))
  (let ((let336 (ff.mul let335 let320)))
  (let ((let337 (= let336 let332)))
  (let ((let338 _44))
  (let ((let339 _10))
  (let ((let340 (ff.mul let339 let338)))
  (let ((let341 (= let340 let335)))
  (let ((let342 _34))
  (let ((let343 (ff.mul let342 let3)))
  (let ((let344 (ff.add let343 let34)))
  (let ((let345 _74))
  (let ((let346 (ff.mul let345 let344)))
  (let ((let347 (= let346 let304)))
  (let ((let348 _57))
  (let ((let349 (ff.mul let348 let3)))
  (let ((let350 (ff.add let349 let34)))
  (let ((let351 _73))
  (let ((let352 (ff.mul let351 let350)))
  (let ((let353 (= let352 let345)))
  (let ((let354 _59))
  (let ((let355 (ff.mul let354 let3)))
  (let ((let356 (ff.add let355 let34)))
  (let ((let357 _72))
  (let ((let358 (ff.mul let357 let356)))
  (let ((let359 (= let358 let351)))
  (let ((let360 _23))
  (let ((let361 _71))
  (let ((let362 (ff.mul let361 let360)))
  (let ((let363 (= let362 let357)))
  (let ((let364 _61))
  (let ((let365 (ff.mul let364 let3)))
  (let ((let366 (ff.add let365 let34)))
  (let ((let367 _70))
  (let ((let368 (ff.mul let367 let366)))
  (let ((let369 (= let368 let361)))
  (let ((let370 _67))
  (let ((let371 _66))
  (let ((let372 (ff.add let371 let370)))
  (let ((let373 _69))
  (let ((let374 (ff.mul let373 let372)))
  (let ((let375 (= let374 let367)))
  (let ((let376 _26))
  (let ((let377 (ff.mul let376 let3)))
  (let ((let378 (ff.add let377 let34)))
  (let ((let379 (ff.mul let378 let316)))
  (let ((let380 (= let379 let373)))
  (let ((let381 _42))
  (let ((let382 (ff.mul let381 let3)))
  (let ((let383 (ff.add let382 let34)))
  (let ((let384 _6))
  (let ((let385 (ff.mul let384 let3)))
  (let ((let386 (ff.add let385 let34)))
  (let ((let387 (ff.mul let386 let383)))
  (let ((let388 (= let387 let370)))
  (let ((let389 (ff.mul let384 let344)))
  (let ((let390 (= let389 let371)))
  (let ((let391 _1))
  (let ((let392 (ff.add let391 let321)))
  (let ((let393 (ff.mul let392 let392)))
  (let ((let394 (= let393 let364)))
  (let ((let395 (ff.mul let360 let3)))
  (let ((let396 (ff.add let395 let348)))
  (let ((let397 (ff.mul let396 let396)))
  (let ((let398 (= let397 let354)))
  (let ((let399 (ff.mul let327 let3)))
  (let ((let400 _8))
  (let ((let401 (ff.mul let400 let3)))
  (let ((let402 (ff.add let401 let399 let34)))
  (let ((let403 (ff.mul let402 let402)))
  (let ((let404 (= let403 let348)))
  (let ((let405 _27))
  (let ((let406 (ff.mul let405 let3)))
  (let ((let407 (ff.add let406 let317 let399 let34)))
  (let ((let408 (ff.add let406 let34)))
  (let ((let409 (ff.mul let408 let317)))
  (let ((let410 (= let409 let407)))
  (let ((let411 _53))
  (let ((let412 _2))
  (let ((let413 (ff.add let412 let411 let323)))
  (let ((let414 (ff.mul let411 let412)))
  (let ((let415 (= let414 let413)))
  (let ((let416 (ff.mul let411 let3)))
  (let ((let417 _52))
  (let ((let418 (ff.add let321 let417 let416 let34)))
  (let ((let419 (ff.mul let417 let322)))
  (let ((let420 (= let419 let418)))
  (let ((let421 (ff.mul let417 let3)))
  (let ((let422 _51))
  (let ((let423 _36))
  (let ((let424 (ff.mul let423 let3)))
  (let ((let425 (ff.add let424 let422 let421 let34)))
  (let ((let426 (ff.add let424 let34)))
  (let ((let427 (ff.mul let422 let426)))
  (let ((let428 (= let427 let425)))
  (let ((let429 (ff.mul let422 let3)))
  (let ((let430 _21))
  (let ((let431 _20))
  (let ((let432 (ff.mul let391 let3)))
  (let ((let433 (ff.add let432 let431 let430 let429 let34)))
  (let ((let434 (ff.add let432 let34)))
  (let ((let435 (ff.add let431 let430)))
  (let ((let436 (ff.mul let435 let434)))
  (let ((let437 (= let436 let433)))
  (let ((let438 (ff.mul let298 let3)))
  (let ((let439 _48))
  (let ((let440 (ff.add let339 let439 let438)))
  (let ((let441 (ff.mul let439 let339)))
  (let ((let442 (= let441 let440)))
  (let ((let443 (ff.mul let439 let3)))
  (let ((let444 _47))
  (let ((let445 _5))
  (let ((let446 (ff.add let445 let444 let443)))
  (let ((let447 (ff.mul let444 let445)))
  (let ((let448 (= let447 let446)))
  (let ((let449 (ff.mul let444 let3)))
  (let ((let450 _0))
  (let ((let451 (ff.add let450 let377 let449 let34)))
  (let ((let452 (ff.mul let450 let378)))
  (let ((let453 (= let452 let451)))
  (let ((let454 (ff.mul let292 let3)))
  (let ((let455 (ff.mul let338 let3)))
  (let ((let456 (ff.add let376 let455 let454 let34)))
  (let ((let457 (ff.add let455 let34)))
  (let ((let458 (ff.mul let457 let376)))
  (let ((let459 (= let458 let456)))
  (let ((let460 _16))
  (let ((let461 (ff.mul let460 let383)))
  (let ((let462 (= let461 let338)))
  (let ((let463 _40))
  (let ((let464 (ff.mul let463 let3)))
  (let ((let465 (ff.add let405 let464)))
  (let ((let466 (ff.mul let465 let465)))
  (let ((let467 (= let466 let381)))
  (let ((let468 (ff.mul let450 let3)))
  (let ((let469 (ff.add let468 let331)))
  (let ((let470 (ff.mul let469 let469)))
  (let ((let471 (= let470 let463)))
  (let ((let472 (ff.mul let331 let3)))
  (let ((let473 _38))
  (let ((let474 (ff.add let316 let473 let472)))
  (let ((let475 (ff.mul let473 let316)))
  (let ((let476 (= let475 let474)))
  (let ((let477 (ff.mul let473 let3)))
  (let ((let478 (ff.add let321 let424 let477 let192)))
  (let ((let479 (ff.mul let426 let322)))
  (let ((let480 (= let479 let478)))
  (let ((let481 (ff.add let391 let342 let3)))
  (let ((let482 (ff.mul let481 let481)))
  (let ((let483 (= let482 let423)))
  (let ((let484 (ff.mul let445 let3)))
  (let ((let485 (ff.add let450 let484)))
  (let ((let486 (ff.mul let485 let485)))
  (let ((let487 (= let486 let342)))
  (let ((let488 (ff.mul let316 let3)))
  (let ((let489 _31))
  (let ((let490 _3))
  (let ((let491 (ff.add let490 let489 let488)))
  (let ((let492 (ff.mul let489 let490)))
  (let ((let493 (= let492 let491)))
  (let ((let494 (ff.mul let489 let3)))
  (let ((let495 _30))
  (let ((let496 (ff.add let405 let495 let494)))
  (let ((let497 (ff.mul let495 let405)))
  (let ((let498 (= let497 let496)))
  (let ((let499 (ff.mul let495 let3)))
  (let ((let500 (ff.add let384 let339 let499)))
  (let ((let501 (ff.mul let339 let384)))
  (let ((let502 (= let501 let500)))
  (let ((let503 _4))
  (let ((let504 (ff.mul let490 let3)))
  (let ((let505 (ff.add let504 let503)))
  (let ((let506 (ff.mul let505 let505)))
  (let ((let507 (= let506 let405)))
  (let ((let508 (ff.add let391 let395 let377 let34)))
  (let ((let509 (ff.add let395 let34)))
  (let ((let510 (ff.mul let509 let391)))
  (let ((let511 (= let510 let508)))
  (let ((let512 (ff.add let401 let431 let430)))
  (let ((let513 (ff.mul let512 let512)))
  (let ((let514 (= let513 let360)))
  (let ((let515 _9))
  (let ((let516 (ff.mul let460 let3)))
  (let ((let517 (ff.add let516 let34)))
  (let ((let518 (ff.mul let517 let515)))
  (let ((let519 (= let518 let430)))
  (let ((let520 _11))
  (let ((let521 (ff.mul let460 let520)))
  (let ((let522 (= let521 let431)))
  (let ((let523 _15))
  (let ((let524 (ff.add let384 let523 let516)))
  (let ((let525 (ff.mul let523 let384)))
  (let ((let526 (= let525 let524)))
  (let ((let527 (ff.mul let523 let3)))
  (let ((let528 _14))
  (let ((let529 (ff.add let412 let528 let527)))
  (let ((let530 (ff.mul let528 let412)))
  (let ((let531 (= let530 let529)))
  (let ((let532 (ff.mul let528 let3)))
  (let ((let533 _13))
  (let ((let534 (ff.add let520 let533 let532)))
  (let ((let535 (ff.mul let533 let520)))
  (let ((let536 (= let535 let534)))
  (let ((let537 (ff.mul let533 let3)))
  (let ((let538 _12))
  (let ((let539 (ff.add let503 let538 let537)))
  (let ((let540 (ff.mul let538 let503)))
  (let ((let541 (= let540 let539)))
  (let ((let542 (ff.mul let538 let3)))
  (let ((let543 (ff.add let400 let515 let542)))
  (let ((let544 (ff.mul let515 let400)))
  (let ((let545 (= let544 let543)))
  (let ((let546 (ff.mul let520 let520)))
  (let ((let547 (= let546 let520)))
  (let ((let548 (ff.mul let339 let339)))
  (let ((let549 (= let548 let339)))
  (let ((let550 (ff.mul let515 let515)))
  (let ((let551 (= let550 let515)))
  (let ((let552 (ff.mul let400 let400)))
  (let ((let553 (= let552 let400)))
  (let ((let554 (ff.mul let320 let320)))
  (let ((let555 (= let554 let320)))
  (let ((let556 (ff.mul let384 let384)))
  (let ((let557 (= let556 let384)))
  (let ((let558 (ff.mul let445 let445)))
  (let ((let559 (= let558 let445)))
  (let ((let560 (ff.mul let503 let503)))
  (let ((let561 (= let560 let503)))
  (let ((let562 (ff.mul let490 let490)))
  (let ((let563 (= let562 let490)))
  (let ((let564 (ff.mul let412 let412)))
  (let ((let565 (= let564 let412)))
  (let ((let566 (ff.mul let391 let391)))
  (let ((let567 (= let566 let391)))
  (let ((let568 (ff.mul let450 let450)))
  (let ((let569 (= let568 let450)))
  (let ((let570 (and let569 let567 let565 let563 let561 let559 let557 let555 let553 let551 let549 let547 let545 let541 let536 let531 let526 let522 let519 let514 let511 let507 let502 let498 let493 let487 let483 let480 let476 let471 let467 let462 let459 let453 let448 let442 let437 let428 let420 let415 let410 let404 let398 let394 let390 let388 let380 let375 let369 let363 let359 let353 let347 let341 let337 let334 let330 let326 let319 let315 let307 let301 let295 let289)))
  (let ((let571 (= let287 let0)))
  (let ((let572 (not let571)))
  (let ((let573 (= let503 let219)))
  (let ((let574 (= let450 let165)))
  (let ((let575 (= let490 let206)))
  (let ((let576 (= let515 let231)))
  (let ((let577 (= let400 let115)))
  (let ((let578 (= let320 let35)))
  (let ((let579 (= let391 let106)))
  (let ((let580 (= let384 let99)))
  (let ((let581 (= let445 let160)))
  (let ((let582 (= let520 let236)))
  (let ((let583 (= let412 let127)))
  (let ((let584 (= let339 let54)))
  (let ((let585 (and let584 let583 let582 let581 let580 let579 let578 let577 let576 let575 let574 let573)))
  (let ((let586 (and let585 let572 let570 let286)))
  let586
)))))))))))))))))))))))))))))))))))))))))))))))))))))))))))))))))))))))))))))))))))))))))))))))))))))))))))))))))))))))))))))))))))))))))))))))))))))))))))))))))))))))))))))))))))))))))))))))))))))))))))))))))))))))))))))))))))))))))))))))))))))))))))))))))))))))))))))))))))))))))))))))))))))))))))))))))))))))))))))))))))))))))))))))))))))))))))))))))))))))))))))))))))))))))))))))))))))))))))))))))))))))))))))))))))))))))))))))))))))))))))))))))))))))))))))))))))))))))))))))))))))))))))))))))))))))))))))))))))))))))))))))))))))))))))))))))))))))))))))))))))))))))))))))))))))))))))
)
(check-sat)
